CPXPARAM_Read_DataCheck                          1
Found incumbent of value 0.000000 after 0.02 sec. (0.26 ticks)
Tried aggregator 1 time.
MIP Presolve modified 1 coefficients.
Reduced MIP has 2017 rows, 10005 columns, and 50017 nonzeros.
Reduced MIP has 10005 binaries, 0 generals, 0 SOSs, and 0 indicators.
Presolve time = 0.02 sec. (21.74 ticks)
Probing time = 0.02 sec. (8.83 ticks)
Tried aggregator 1 time.
Reduced MIP has 2017 rows, 10005 columns, and 50017 nonzeros.
Reduced MIP has 10005 binaries, 0 generals, 0 SOSs, and 0 indicators.
Presolve time = 0.03 sec. (25.89 ticks)
Probing time = 0.02 sec. (9.33 ticks)
Clique table members: 32064.
MIP emphasis: balance optimality and feasibility.
MIP search method: dynamic search.
Parallel mode: deterministic, using up to 4 threads.
Root relaxation solution time = 0.13 sec. (149.54 ticks)

        Nodes                                         Cuts/
   Node  Left     Objective  IInf  Best Integer    Best Bound    ItCnt     Gap

*     0+    0                            0.0000    61650.0000              --- 
*     0+    0                         7565.0000    61650.0000           714.94%
*     0+    0                         8738.0000    61650.0000           605.54%
*     0+    0                         9389.0000    61650.0000           556.62%
      0     0    20719.9405     5     9389.0000    20719.9405     2630  120.68%
*     0+    0                        12271.0000    20719.9405            68.85%
      0     0    18570.7855   143    12271.0000     Cuts: 604     3398   17.97%
*     0+    0                        12842.0000    14476.0950            12.72%
      0     0        cutoff          12842.0000    12842.0000     4493    0.00%
Elapsed time = 2.11 sec. (1348.38 ticks, tree = 0.01 MB, solutions = 6)

Clique cuts applied:  947
Cover cuts applied:  3
Mixed integer rounding cuts applied:  8
Zero-half cuts applied:  1

Root node processing (before b&c):
  Real time             =    2.11 sec. (1349.31 ticks)
Parallel b&c, 4 threads:
  Real time             =    0.00 sec. (0.00 ticks)
  Sync time (average)   =    0.00 sec.
  Wait time (average)   =    0.00 sec.
                          ------------
Total (root+branch&cut) =    2.11 sec. (1349.31 ticks)
